c pcminimize - minimizing a CNF with respect to propagation completeness by iterative removing of absorbed clauses.
c Petr Kucera, 2016-2021
c Version 2.7, revision 59, git hash 4910a71, date 2024-07-16 20:17:42 +0200
p cnf 1121 3096
156 -251 0
252 -253 0
-156 -253 0
251 253 -254 0
254 -255 0
-66 -255 0
255 -256 0
138 -256 0
156 -257 0
257 -259 0
258 -259 0
259 -260 0
-138 -260 0
256 260 -261 0
261 -262 0
177 -262 0
-66 -264 0
263 -264 0
264 -265 0
138 -265 0
156 -266 0
258 -266 0
266 -267 0
-138 -267 0
265 267 -268 0
268 -269 0
22 -269 0
269 -270 0
-177 -270 0
262 270 -271 0
272 -274 0
273 -274 0
274 -275 0
38 -275 0
-70 -276 0
-83 -276 0
276 -277 0
-38 -277 0
275 277 -278 0
279 -280 0
36 -280 0
181 -281 0
-36 -281 0
280 281 -282 0
-89 -283 0
133 -283 0
142 -283 0
159 -283 0
176 -283 0
271 -285 0
278 -285 0
282 -285 0
283 -285 0
284 -285 0
285 -287 0
286 -287 0
287 -288 0
109 -288 0
254 -289 0
177 -289 0
22 -290 0
263 -290 0
290 -291 0
-177 -291 0
289 291 -292 0
38 -293 0
-66 -293 0
83 -293 0
292 -294 0
293 -294 0
272 -294 0
294 -295 0
138 -295 0
278 -297 0
257 -297 0
296 -297 0
297 -298 0
258 -298 0
298 -299 0
-138 -299 0
295 299 -300 0
-55 -301 0
23 -301 0
284 -302 0
-23 -302 0
301 302 -303 0
142 -304 0
159 -304 0
305 -306 0
-159 -306 0
304 306 -307 0
307 -308 0
89 -308 0
142 -309 0
159 -309 0
309 -310 0
-89 -310 0
308 310 -311 0
303 -312 0
311 -312 0
312 -313 0
133 -313 0
-23 -314 0
55 -314 0
89 -314 0
307 -315 0
314 -315 0
315 -316 0
-133 -316 0
313 316 -317 0
317 -318 0
176 -318 0
318 -319 0
279 -319 0
319 -320 0
36 -320 0
-55 -321 0
133 -321 0
321 -322 0
23 -322 0
323 -324 0
55 -324 0
133 -325 0
-55 -325 0
324 325 -326 0
326 -327 0
-23 -327 0
322 327 -328 0
328 -329 0
307 -329 0
329 -331 0
330 -331 0
331 -332 0
89 -332 0
133 -333 0
142 -333 0
159 -333 0
176 -333 0
303 -334 0
333 -334 0
334 -335 0
-89 -335 0
332 335 -336 0
336 -337 0
181 -337 0
337 -338 0
-36 -338 0
320 338 -339 0
300 -340 0
339 -340 0
340 -341 0
-109 -341 0
288 341 -342 0
-217 -343 0
220 -343 0
344 -345 0
-220 -345 0
343 345 -346 0
-6 -347 0
-8 -347 0
14 -347 0
-15 -347 0
-20 -347 0
30 -347 0
32 -347 0
-40 -347 0
45 -347 0
-64 -347 0
75 -347 0
-78 -347 0
-82 -347 0
96 -347 0
-105 -347 0
-113 -347 0
-117 -347 0
-132 -347 0
-135 -347 0
136 -347 0
148 -347 0
153 -347 0
-154 -347 0
162 -347 0
167 -347 0
-187 -347 0
-189 -347 0
193 -347 0
197 -347 0
-199 -347 0
204 -347 0
205 -347 0
-216 -347 0
-218 -347 0
-219 -347 0
236 -347 0
249 -347 0
348 -352 0
349 -352 0
350 -352 0
351 -352 0
342 -353 0
346 -353 0
347 -353 0
352 -353 0
353 -354 0
121 -354 0
-217 -356 0
355 -356 0
356 -357 0
220 -357 0
136 -358 0
217 -358 0
355 -359 0
-217 -359 0
358 359 -360 0
360 -361 0
-220 -361 0
357 361 -362 0
-15 -363 0
-82 -363 0
328 -364 0
362 -364 0
363 -364 0
364 -365 0
45 -365 0
23 -366 0
-55 -366 0
133 -366 0
-136 -366 0
-217 -366 0
366 -368 0
367 -368 0
368 -371 0
369 -371 0
370 -371 0
371 -372 0
-45 -372 0
365 372 -373 0
272 -374 0
30 -374 0
-70 -375 0
-30 -375 0
374 375 -376 0
292 -377 0
376 -377 0
293 -377 0
377 -378 0
138 -378 0
278 -379 0
30 -379 0
273 -380 0
38 -380 0
-83 -381 0
-38 -381 0
380 381 -382 0
382 -383 0
-70 -383 0
383 -384 0
-30 -384 0
379 384 -385 0
385 -386 0
257 -386 0
296 -386 0
386 -387 0
258 -387 0
387 -388 0
-138 -388 0
378 388 -389 0
-6 -390 0
-8 -390 0
14 -390 0
-20 -390 0
32 -390 0
-36 -390 0
-40 -390 0
-64 -390 0
75 -390 0
-78 -390 0
89 -390 0
96 -390 0
-105 -390 0
-109 -390 0
-113 -390 0
-117 -390 0
-132 -390 0
-135 -390 0
148 -390 0
153 -390 0
-154 -390 0
162 -390 0
167 -390 0
181 -390 0
-187 -390 0
-189 -390 0
193 -390 0
197 -390 0
-199 -390 0
204 -390 0
205 -390 0
-216 -390 0
-218 -390 0
-219 -390 0
236 -390 0
249 -390 0
348 -391 0
349 -391 0
350 -391 0
351 -391 0
373 -392 0
389 -392 0
307 -392 0
390 -392 0
391 -392 0
392 -393 0
393 -394 0
-176 -394 0
394 -395 0
-121 -395 0
354 395 -396 0
396 -397 0
35 -397 0
-89 -398 0
133 -398 0
142 -398 0
159 -398 0
271 -399 0
278 -399 0
398 -399 0
284 -399 0
399 -400 0
286 -400 0
400 -401 0
109 -401 0
300 -402 0
317 -402 0
402 -403 0
-109 -403 0
401 403 -404 0
-15 -405 0
30 -405 0
45 -405 0
-82 -405 0
121 -405 0
136 -405 0
404 -406 0
346 -406 0
282 -406 0
405 -406 0
406 -407 0
176 -407 0
30 -408 0
272 -408 0
408 -409 0
121 -409 0
376 -410 0
-121 -410 0
409 410 -411 0
411 -412 0
271 -412 0
38 -412 0
412 -413 0
83 -413 0
272 -414 0
38 -414 0
-70 -415 0
-38 -415 0
414 415 -416 0
416 -417 0
30 -417 0
417 -418 0
121 -418 0
416 -419 0
30 -419 0
-70 -421 0
420 -421 0
421 -422 0
-30 -422 0
419 422 -423 0
423 -424 0
-121 -424 0
418 424 -425 0
-138 -426 0
156 -426 0
296 -427 0
258 -427 0
425 -428 0
426 -428 0
427 -428 0
428 -429 0
-83 -429 0
413 429 -430 0
-15 -431 0
45 -431 0
-82 -431 0
430 -432 0
346 -432 0
328 -432 0
431 -432 0
432 -433 0
136 -433 0
363 -434 0
45 -434 0
370 -435 0
369 -435 0
435 -436 0
-45 -436 0
434 436 -437 0
437 -438 0
321 -438 0
438 -439 0
23 -439 0
326 -440 0
431 -440 0
440 -441 0
-23 -441 0
439 441 -442 0
-121 -443 0
-217 -443 0
389 -444 0
442 -444 0
443 -444 0
367 -444 0
444 -445 0
-136 -445 0
433 445 -446 0
-36 -447 0
89 -447 0
-109 -447 0
181 -447 0
446 -448 0
307 -448 0
447 -448 0
448 -449 0
-176 -449 0
407 449 -450 0
-6 -451 0
-8 -451 0
14 -451 0
-20 -451 0
32 -451 0
-40 -451 0
-64 -451 0
75 -451 0
-78 -451 0
96 -451 0
-105 -451 0
-113 -451 0
-117 -451 0
-132 -451 0
-135 -451 0
148 -451 0
153 -451 0
-154 -451 0
162 -451 0
167 -451 0
-187 -451 0
-189 -451 0
193 -451 0
197 -451 0
-199 -451 0
204 -451 0
205 -451 0
-216 -451 0
-218 -451 0
-219 -451 0
236 -451 0
249 -451 0
348 -452 0
349 -452 0
350 -452 0
351 -452 0
450 -453 0
451 -453 0
452 -453 0
453 -454 0
-35 -454 0
397 454 -455 0
44 -456 0
-158 -456 0
-196 -456 0
211 -456 0
455 -457 0
139 -471 0
472 -473 0
216 -473 0
-132 -474 0
-216 -474 0
473 474 -475 0
475 -477 0
476 -477 0
477 -478 0
220 -478 0
6 -479 0
-132 -479 0
-216 -479 0
479 -480 0
-220 -480 0
478 480 -481 0
363 -482 0
272 -482 0
355 -482 0
482 -483 0
45 -483 0
-70 -484 0
-136 -484 0
484 -485 0
370 -485 0
369 -485 0
485 -486 0
-45 -486 0
483 486 -487 0
32 -488 0
75 -488 0
-113 -488 0
193 -488 0
487 -489 0
488 -489 0
489 -490 0
30 -490 0
363 -491 0
355 -491 0
491 -492 0
45 -492 0
-136 -493 0
370 -493 0
369 -493 0
493 -494 0
-45 -494 0
492 494 -495 0
32 -496 0
75 -496 0
-113 -496 0
496 -497 0
193 -497 0
498 -501 0
499 -501 0
500 -501 0
501 -502 0
-193 -502 0
497 502 -503 0
495 -504 0
503 -504 0
-70 -504 0
504 -505 0
-30 -505 0
490 505 -506 0
506 -507 0
-55 -507 0
507 -509 0
508 -509 0
509 -510 0
23 -510 0
363 -511 0
355 -511 0
272 -511 0
508 -511 0
511 -512 0
45 -512 0
-70 -513 0
105 -513 0
-136 -513 0
513 -514 0
370 -514 0
369 -514 0
514 -515 0
-45 -515 0
512 515 -516 0
32 -517 0
75 -517 0
193 -517 0
516 -518 0
517 -518 0
518 -519 0
30 -519 0
363 -520 0
355 -520 0
508 -520 0
520 -521 0
45 -521 0
105 -522 0
-136 -522 0
522 -523 0
370 -523 0
369 -523 0
523 -524 0
-45 -524 0
521 524 -525 0
32 -526 0
75 -526 0
526 -527 0
193 -527 0
499 -528 0
500 -528 0
528 -529 0
-193 -529 0
527 529 -530 0
525 -531 0
530 -531 0
-70 -531 0
531 -532 0
-30 -532 0
519 532 -533 0
533 -534 0
-113 -534 0
534 -535 0
284 -535 0
535 -536 0
-23 -536 0
510 536 -537 0
20 -538 0
249 -538 0
539 -540 0
-249 -540 0
538 540 -541 0
541 -542 0
83 -542 0
542 -543 0
138 -543 0
-20 -544 0
-249 -544 0
544 -545 0
273 -545 0
545 -546 0
-138 -546 0
543 546 -547 0
-92 -548 0
-159 -548 0
549 -550 0
305 -550 0
547 -551 0
548 -551 0
550 -551 0
551 -552 0
8 -552 0
142 -553 0
249 -553 0
553 -554 0
159 -554 0
305 -556 0
555 -556 0
556 -557 0
-159 -557 0
554 557 -558 0
83 -559 0
138 -559 0
558 -560 0
559 -560 0
560 -561 0
20 -561 0
83 -562 0
138 -562 0
273 -563 0
-138 -563 0
562 563 -564 0
-159 -565 0
-249 -565 0
564 -566 0
565 -566 0
305 -566 0
566 -567 0
-20 -567 0
561 567 -568 0
-96 -569 0
92 -569 0
549 -570 0
-92 -570 0
569 570 -571 0
568 -572 0
571 -572 0
572 -573 0
-8 -573 0
552 573 -574 0
135 -575 0
481 -576 0
537 -576 0
574 -576 0
575 -576 0
351 -576 0
576 -577 0
187 -577 0
135 -578 0
6 -578 0
579 -580 0
-6 -580 0
578 580 -581 0
581 -582 0
475 -582 0
582 -583 0
220 -583 0
6 -584 0
-132 -584 0
135 -584 0
-216 -584 0
584 -585 0
-220 -585 0
583 585 -586 0
-82 -587 0
355 -587 0
272 -587 0
587 -588 0
45 -588 0
484 -589 0
370 -589 0
589 -590 0
-45 -590 0
588 590 -591 0
591 -592 0
30 -592 0
-82 -593 0
355 -593 0
593 -594 0
45 -594 0
-136 -595 0
370 -595 0
595 -596 0
-45 -596 0
594 596 -597 0
597 -598 0
-70 -598 0
598 -599 0
-30 -599 0
592 599 -600 0
600 -601 0
496 -601 0
601 -602 0
193 -602 0
-30 -603 0
-70 -603 0
597 -604 0
603 -604 0
604 -605 0
499 -605 0
500 -605 0
498 -605 0
605 -606 0
-193 -606 0
602 606 -607 0
607 -608 0
-55 -608 0
608 -609 0
508 -609 0
609 -610 0
23 -610 0
376 -611 0
-82 -611 0
611 -612 0
355 -612 0
508 -612 0
612 -613 0
45 -613 0
513 -615 0
614 -615 0
615 -616 0
370 -616 0
616 -617 0
-45 -617 0
613 617 -618 0
618 -619 0
526 -619 0
619 -620 0
193 -620 0
-82 -621 0
355 -621 0
508 -621 0
621 -622 0
45 -622 0
522 -623 0
370 -623 0
623 -624 0
-45 -624 0
622 624 -625 0
625 -626 0
603 -626 0
626 -627 0
499 -627 0
500 -627 0
627 -628 0
-193 -628 0
620 628 -629 0
629 -630 0
-113 -630 0
630 -631 0
284 -631 0
631 -632 0
-23 -632 0
610 632 -633 0
-159 -634 0
305 -635 0
351 -635 0
633 -636 0
547 -636 0
634 -636 0
635 -636 0
636 -637 0
8 -637 0
32 -638 0
75 -638 0
-113 -638 0
600 -639 0
638 -639 0
351 -639 0
639 -640 0
193 -640 0
641 -642 0
113 -642 0
-113 -643 0
642 643 -644 0
-30 -645 0
-70 -645 0
644 -646 0
597 -646 0
645 -646 0
351 -646 0
646 -647 0
499 -647 0
500 -647 0
647 -648 0
-193 -648 0
640 648 -649 0
649 -650 0
-55 -650 0
650 -651 0
508 -651 0
651 -652 0
23 -652 0
-113 -653 0
629 -654 0
653 -654 0
351 -654 0
654 -655 0
284 -655 0
655 -656 0
-23 -656 0
652 656 -657 0
657 -658 0
568 -658 0
658 -659 0
-8 -659 0
637 659 -660 0
-15 -661 0
96 -661 0
586 -662 0
660 -662 0
661 -662 0
662 -663 0
-187 -663 0
577 663 -664 0
78 -665 0
-148 -665 0
156 -665 0
218 -665 0
219 -665 0
664 -667 0
665 -667 0
666 -667 0
667 -668 0
199 -668 0
-148 -669 0
156 -669 0
481 -671 0
568 -671 0
669 -671 0
670 -671 0
671 -672 0
218 -672 0
-148 -673 0
78 -673 0
674 -675 0
-78 -675 0
673 675 -676 0
558 -677 0
559 -677 0
263 -677 0
677 -678 0
20 -678 0
83 -679 0
263 -679 0
679 -680 0
138 -680 0
156 -681 0
273 -681 0
681 -682 0
-138 -682 0
680 682 -683 0
683 -684 0
565 -684 0
305 -684 0
684 -685 0
-20 -685 0
678 685 -686 0
476 -687 0
220 -687 0
6 -688 0
-220 -688 0
687 688 -689 0
475 -690 0
676 -690 0
686 -690 0
689 -690 0
690 -691 0
-218 -691 0
672 691 -692 0
692 -693 0
666 -693 0
693 -694 0
219 -694 0
6 -695 0
20 -695 0
-78 -695 0
83 -695 0
138 -695 0
148 -695 0
162 -695 0
-218 -695 0
-220 -695 0
249 -695 0
475 -696 0
307 -696 0
695 -696 0
263 -696 0
696 -697 0
-219 -697 0
694 697 -698 0
303 -699 0
376 -699 0
363 -699 0
699 -700 0
355 -700 0
508 -700 0
700 -701 0
45 -701 0
-55 -702 0
508 -702 0
702 -703 0
23 -703 0
105 -704 0
284 -704 0
704 -705 0
-23 -705 0
703 705 -706 0
706 -707 0
484 -707 0
614 -707 0
707 -708 0
370 -708 0
369 -708 0
708 -709 0
-45 -709 0
701 709 -710 0
698 -711 0
710 -711 0
571 -711 0
135 -711 0
711 -712 0
187 -712 0
586 -713 0
568 -713 0
669 -713 0
670 -713 0
713 -714 0
218 -714 0
581 -715 0
220 -715 0
6 -716 0
135 -716 0
716 -717 0
-220 -717 0
715 717 -718 0
475 -719 0
718 -719 0
676 -719 0
686 -719 0
719 -720 0
-218 -720 0
714 720 -721 0
721 -722 0
666 -722 0
722 -723 0
219 -723 0
6 -724 0
20 -724 0
-78 -724 0
83 -724 0
135 -724 0
138 -724 0
148 -724 0
162 -724 0
-218 -724 0
-220 -724 0
249 -724 0
475 -725 0
307 -725 0
724 -725 0
263 -725 0
725 -726 0
-219 -726 0
723 726 -727 0
303 -728 0
376 -728 0
-82 -728 0
728 -729 0
355 -729 0
508 -729 0
729 -730 0
45 -730 0
706 -731 0
484 -731 0
614 -731 0
731 -732 0
370 -732 0
732 -733 0
-45 -733 0
730 733 -734 0
727 -735 0
734 -735 0
661 -735 0
735 -736 0
-187 -736 0
712 736 -737 0
-8 -738 0
32 -738 0
75 -738 0
-113 -738 0
193 -738 0
737 -739 0
738 -739 0
351 -739 0
739 -740 0
-199 -740 0
668 740 -741 0
-14 -742 0
22 -742 0
-36 -742 0
38 -742 0
40 -742 0
-44 -742 0
89 -742 0
-109 -742 0
117 -742 0
-121 -742 0
-153 -742 0
158 -742 0
-167 -742 0
-176 -742 0
-177 -742 0
181 -742 0
189 -742 0
196 -742 0
-197 -742 0
-204 -742 0
-205 -742 0
-207 -742 0
-211 -742 0
-217 -742 0
-236 -742 0
348 -745 0
743 -745 0
744 -745 0
258 -745 0
349 -745 0
741 -746 0
742 -746 0
745 -746 0
746 -747 0
133 -748 0
747 -749 0
748 -749 0
749 -750 0
64 -751 0
750 -752 0
751 -752 0
752 -753 0
224 -753 0
109 -754 0
55 -754 0
755 -756 0
-55 -756 0
754 756 -757 0
757 -758 0
23 -758 0
284 -759 0
755 -759 0
759 -760 0
-23 -760 0
758 760 -761 0
761 -762 0
38 -762 0
272 -762 0
762 -763 0
83 -763 0
286 -764 0
284 -764 0
416 -765 0
109 -765 0
764 -765 0
765 -766 0
-83 -766 0
763 766 -767 0
767 -768 0
292 -768 0
-66 -768 0
768 -769 0
138 -769 0
278 -770 0
761 -770 0
257 -770 0
296 -770 0
770 -771 0
258 -771 0
771 -772 0
-138 -772 0
769 772 -773 0
-6 -774 0
-8 -774 0
14 -774 0
-15 -774 0
-20 -774 0
30 -774 0
32 -774 0
-40 -774 0
44 -774 0
45 -774 0
-64 -774 0
75 -774 0
-78 -774 0
-82 -774 0
-89 -774 0
96 -774 0
-105 -774 0
-113 -774 0
-117 -774 0
-132 -774 0
-135 -774 0
136 -774 0
142 -774 0
148 -774 0
153 -774 0
-154 -774 0
-158 -774 0
159 -774 0
162 -774 0
167 -774 0
176 -774 0
-187 -774 0
-189 -774 0
193 -774 0
-196 -774 0
197 -774 0
-199 -774 0
204 -774 0
205 -774 0
211 -774 0
-216 -774 0
-218 -774 0
-219 -774 0
236 -774 0
249 -774 0
348 -775 0
349 -775 0
350 -775 0
351 -775 0
346 -776 0
773 -776 0
282 -776 0
774 -776 0
775 -776 0
776 -777 0
121 -777 0
549 -778 0
187 -778 0
96 -779 0
-187 -779 0
778 779 -780 0
780 -781 0
135 -781 0
781 -782 0
6 -782 0
135 -783 0
549 -783 0
783 -784 0
187 -784 0
96 -785 0
579 -785 0
785 -786 0
-187 -786 0
784 786 -787 0
787 -788 0
-6 -788 0
782 788 -789 0
30 -790 0
32 -790 0
75 -790 0
-113 -790 0
193 -790 0
303 -791 0
790 -791 0
791 -792 0
70 -792 0
303 -793 0
496 -793 0
793 -794 0
614 -794 0
794 -795 0
193 -795 0
-55 -796 0
498 -796 0
796 -797 0
23 -797 0
-113 -798 0
284 -798 0
798 -799 0
-23 -799 0
797 799 -800 0
800 -801 0
-30 -801 0
801 -802 0
499 -802 0
500 -802 0
802 -803 0
-193 -803 0
795 803 -804 0
804 -805 0
-70 -805 0
792 805 -806 0
789 -807 0
806 -807 0
363 -807 0
807 -808 0
355 -808 0
508 -808 0
808 -809 0
45 -809 0
549 -810 0
369 -810 0
810 -811 0
187 -811 0
-15 -812 0
96 -812 0
812 -813 0
-187 -813 0
811 813 -814 0
814 -815 0
135 -815 0
815 -816 0
6 -816 0
135 -817 0
549 -817 0
369 -817 0
817 -818 0
187 -818 0
812 -819 0
579 -819 0
819 -820 0
-187 -820 0
818 820 -821 0
821 -822 0
-6 -822 0
816 822 -823 0
706 -824 0
496 -824 0
824 -825 0
614 -825 0
825 -826 0
193 -826 0
-55 -827 0
508 -827 0
498 -827 0
827 -828 0
23 -828 0
105 -829 0
-113 -829 0
829 -830 0
284 -830 0
830 -831 0
-23 -831 0
828 831 -832 0
832 -833 0
-30 -833 0
833 -834 0
499 -834 0
500 -834 0
834 -835 0
-193 -835 0
826 835 -836 0
823 -837 0
836 -837 0
484 -837 0
837 -838 0
370 -838 0
838 -839 0
-45 -839 0
809 839 -840 0
-66 -841 0
83 -841 0
541 -842 0
841 -842 0
842 -843 0
138 -843 0
544 -844 0
273 -844 0
258 -844 0
844 -845 0
-138 -845 0
843 845 -846 0
840 -847 0
846 -847 0
548 -847 0
305 -847 0
847 -848 0
8 -848 0
571 -849 0
187 -849 0
96 -850 0
850 -851 0
-187 -851 0
849 851 -852 0
852 -853 0
135 -853 0
853 -854 0
6 -854 0
571 -855 0
135 -855 0
855 -856 0
187 -856 0
850 -857 0
579 -857 0
857 -858 0
-187 -858 0
856 858 -859 0
859 -860 0
-6 -860 0
854 860 -861 0
861 -862 0
806 -862 0
363 -862 0
862 -863 0
355 -863 0
508 -863 0
863 -864 0
45 -864 0
571 -865 0
135 -865 0
476 -865 0
865 -866 0
369 -866 0
866 -867 0
187 -867 0
581 -868 0
661 -868 0
868 -869 0
-187 -869 0
867 869 -870 0
870 -871 0
836 -871 0
484 -871 0
871 -872 0
370 -872 0
872 -873 0
-45 -873 0
864 873 -874 0
-66 -875 0
83 -875 0
138 -875 0
558 -876 0
875 -876 0
876 -877 0
20 -877 0
841 -878 0
138 -878 0
273 -879 0
258 -879 0
879 -880 0
-138 -880 0
878 880 -881 0
881 -882 0
565 -882 0
305 -882 0
882 -883 0
-20 -883 0
877 883 -884 0
874 -885 0
884 -885 0
885 -886 0
-8 -886 0
848 886 -887 0
78 -888 0
-148 -888 0
156 -888 0
218 -888 0
887 -889 0
888 -889 0
889 -890 0
199 -890 0
861 -891 0
303 -891 0
376 -891 0
363 -891 0
891 -892 0
355 -892 0
508 -892 0
892 -893 0
45 -893 0
870 -894 0
706 -894 0
484 -894 0
614 -894 0
894 -895 0
370 -895 0
895 -896 0
-45 -896 0
893 896 -897 0
156 -898 0
218 -898 0
263 -899 0
-218 -899 0
898 899 -900 0
900 -901 0
-148 -901 0
901 -902 0
78 -902 0
669 -903 0
218 -903 0
263 -904 0
674 -904 0
904 -905 0
-218 -905 0
903 905 -906 0
906 -907 0
-78 -907 0
902 907 -908 0
20 -909 0
142 -909 0
249 -909 0
909 -910 0
159 -910 0
541 -911 0
305 -911 0
911 -912 0
-159 -912 0
910 912 -913 0
908 -914 0
913 -914 0
841 -914 0
914 -915 0
138 -915 0
-148 -917 0
916 -917 0
917 -918 0
78 -918 0
-148 -919 0
218 -919 0
674 -920 0
-218 -920 0
919 920 -921 0
921 -922 0
-78 -922 0
918 922 -923 0
-20 -924 0
156 -924 0
-159 -924 0
-249 -924 0
923 -925 0
924 -925 0
305 -925 0
925 -926 0
273 -926 0
258 -926 0
926 -927 0
-138 -927 0
915 927 -928 0
-8 -929 0
32 -929 0
75 -929 0
-113 -929 0
193 -929 0
897 -930 0
928 -930 0
929 -930 0
930 -931 0
-199 -931 0
890 931 -932 0
475 -933 0
932 -933 0
219 -933 0
666 -933 0
933 -934 0
220 -934 0
-15 -935 0
30 -935 0
32 -935 0
45 -935 0
75 -935 0
-82 -935 0
-113 -935 0
193 -935 0
780 -936 0
935 -936 0
355 -936 0
936 -937 0
70 -937 0
780 -938 0
363 -938 0
938 -939 0
355 -939 0
939 -940 0
45 -940 0
814 -941 0
-136 -941 0
941 -942 0
370 -942 0
942 -943 0
-45 -943 0
940 943 -944 0
496 -945 0
614 -945 0
945 -946 0
193 -946 0
-30 -947 0
498 -947 0
499 -947 0
500 -947 0
947 -948 0
-193 -948 0
946 948 -949 0
944 -950 0
949 -950 0
950 -951 0
-70 -951 0
937 951 -952 0
952 -953 0
-55 -953 0
953 -954 0
508 -954 0
954 -955 0
23 -955 0
-15 -956 0
30 -956 0
32 -956 0
45 -956 0
75 -956 0
-82 -956 0
193 -956 0
355 -957 0
508 -957 0
780 -958 0
956 -958 0
957 -958 0
958 -959 0
70 -959 0
780 -960 0
363 -960 0
960 -961 0
355 -961 0
508 -961 0
961 -962 0
45 -962 0
814 -963 0
522 -963 0
963 -964 0
370 -964 0
964 -965 0
-45 -965 0
962 965 -966 0
526 -967 0
614 -967 0
967 -968 0
193 -968 0
-30 -969 0
499 -969 0
500 -969 0
969 -970 0
-193 -970 0
968 970 -971 0
966 -972 0
971 -972 0
972 -973 0
-70 -973 0
959 973 -974 0
974 -975 0
-113 -975 0
975 -976 0
284 -976 0
976 -977 0
-23 -977 0
955 977 -978 0
846 -979 0
978 -979 0
548 -979 0
305 -979 0
979 -980 0
8 -980 0
806 -981 0
852 -981 0
363 -981 0
981 -982 0
355 -982 0
508 -982 0
982 -983 0
45 -983 0
571 -984 0
369 -984 0
984 -985 0
187 -985 0
661 -986 0
-187 -986 0
985 986 -987 0
836 -988 0
987 -988 0
484 -988 0
988 -989 0
370 -989 0
989 -990 0
-45 -990 0
983 990 -991 0
884 -992 0
991 -992 0
992 -993 0
-8 -993 0
980 993 -994 0
78 -995 0
-132 -995 0
-148 -995 0
156 -995 0
-216 -995 0
218 -995 0
219 -995 0
994 -996 0
995 -996 0
666 -996 0
996 -997 0
199 -997 0
-132 -998 0
-148 -998 0
156 -998 0
-216 -998 0
998 -999 0
670 -999 0
999 -1000 0
218 -1000 0
676 -1001 0
475 -1001 0
1001 -1002 0
263 -1002 0
1002 -1003 0
-218 -1003 0
1000 1003 -1004 0
1004 -1005 0
913 -1005 0
1005 -1006 0
666 -1006 0
1006 -1007 0
219 -1007 0
20 -1008 0
-78 -1008 0
148 -1008 0
162 -1008 0
-218 -1008 0
249 -1008 0
475 -1009 0
307 -1009 0
1008 -1009 0
263 -1009 0
1009 -1010 0
-219 -1010 0
1007 1010 -1011 0
1011 -1012 0
841 -1012 0
1012 -1013 0
138 -1013 0
676 -1014 0
-218 -1014 0
1014 -1015 0
472 -1015 0
1015 -1016 0
216 -1016 0
923 -1017 0
-132 -1017 0
1017 -1018 0
-216 -1018 0
1016 1018 -1019 0
-20 -1020 0
156 -1020 0
-159 -1020 0
219 -1020 0
-249 -1020 0
305 -1021 0
666 -1021 0
1019 -1022 0
1020 -1022 0
1021 -1022 0
1022 -1023 0
273 -1023 0
258 -1023 0
1023 -1024 0
-138 -1024 0
1013 1024 -1025 0
852 -1026 0
303 -1026 0
376 -1026 0
363 -1026 0
1026 -1027 0
355 -1027 0
508 -1027 0
1027 -1028 0
45 -1028 0
987 -1029 0
706 -1029 0
484 -1029 0
614 -1029 0
1029 -1030 0
370 -1030 0
1030 -1031 0
-45 -1031 0
1028 1031 -1032 0
1025 -1033 0
1032 -1033 0
929 -1033 0
1033 -1034 0
-199 -1034 0
997 1034 -1035 0
1035 -1036 0
716 -1036 0
1036 -1037 0
-220 -1037 0
934 1037 -1038 0
-14 -1039 0
22 -1039 0
-36 -1039 0
38 -1039 0
40 -1039 0
89 -1039 0
-109 -1039 0
117 -1039 0
-153 -1039 0
158 -1039 0
-167 -1039 0
-177 -1039 0
181 -1039 0
189 -1039 0
196 -1039 0
-204 -1039 0
-205 -1039 0
-207 -1039 0
-217 -1039 0
246 -1039 0
348 -1042 0
744 -1042 0
349 -1042 0
1040 -1042 0
1041 -1042 0
1038 -1043 0
1039 -1043 0
1042 -1043 0
1043 -1044 0
-44 -1045 0
-236 -1045 0
1044 -1046 0
1045 -1046 0
1046 -1047 0
-211 -1047 0
1047 -1049 0
1048 -1049 0
1049 -1050 0
1050 -1051 0
-176 -1051 0
1051 -1052 0
-121 -1052 0
777 1052 -1053 0
1053 -1054 0
35 -1054 0
109 -1055 0
273 -1055 0
1055 -1056 0
55 -1056 0
755 -1057 0
83 -1057 0
109 -1058 0
-83 -1058 0
1057 1058 -1059 0
1059 -1060 0
-55 -1060 0
1056 1060 -1061 0
1061 -1062 0
23 -1062 0
1059 -1063 0
284 -1063 0
1063 -1064 0
-23 -1064 0
1062 1064 -1065 0
292 -1066 0
1065 -1066 0
-66 -1066 0
1066 -1067 0
138 -1067 0
761 -1068 0
257 -1068 0
296 -1068 0
1068 -1069 0
273 -1069 0
258 -1069 0
1069 -1070 0
-138 -1070 0
1067 1070 -1071 0
-6 -1072 0
-8 -1072 0
14 -1072 0
-15 -1072 0
-20 -1072 0
30 -1072 0
32 -1072 0
-40 -1072 0
44 -1072 0
45 -1072 0
-64 -1072 0
75 -1072 0
-78 -1072 0
-82 -1072 0
-89 -1072 0
96 -1072 0
-105 -1072 0
-113 -1072 0
-117 -1072 0
-132 -1072 0
-135 -1072 0
136 -1072 0
142 -1072 0
148 -1072 0
153 -1072 0
-154 -1072 0
-158 -1072 0
159 -1072 0
162 -1072 0
167 -1072 0
176 -1072 0
-187 -1072 0
-189 -1072 0
193 -1072 0
-196 -1072 0
197 -1072 0
-199 -1072 0
204 -1072 0
205 -1072 0
211 -1072 0
-216 -1072 0
-218 -1072 0
-219 -1072 0
236 -1072 0
249 -1072 0
349 -1073 0
272 -1073 0
351 -1073 0
348 -1073 0
350 -1073 0
346 -1074 0
1071 -1074 0
282 -1074 0
1072 -1074 0
1073 -1074 0
1074 -1075 0
121 -1075 0
-14 -1076 0
22 -1076 0
-36 -1076 0
40 -1076 0
-44 -1076 0
89 -1076 0
-109 -1076 0
117 -1076 0
-153 -1076 0
158 -1076 0
-167 -1076 0
-176 -1076 0
-177 -1076 0
181 -1076 0
189 -1076 0
196 -1076 0
-204 -1076 0
-205 -1076 0
-207 -1076 0
-211 -1076 0
-217 -1076 0
-236 -1076 0
246 -1076 0
348 -1077 0
744 -1077 0
1041 -1077 0
1040 -1077 0
349 -1077 0
1038 -1078 0
1076 -1078 0
1077 -1078 0
1078 -1079 0
-121 -1079 0
1075 1079 -1080 0
38 -1081 0
1080 -1082 0
1081 -1082 0
1082 -1083 0
-35 -1083 0
1054 1083 -1084 0
1084 -1086 0
1085 -1086 0
1086 -1087 0
133 -1088 0
1087 -1089 0
1088 -1089 0
1089 -1090 0
1090 -1092 0
1091 -1092 0
1092 -1093 0
-224 -1093 0
1094 -1096 0
-139 -1102 0
1103 -1104 0
-1 0
2 0
3 0
-4 0
5 0
7 0
9 0
10 0
-11 0
12 0
-13 0
16 0
17 0
-18 0
19 0
21 0
24 0
-25 0
-26 0
27 0
28 0
29 0
-31 0
-33 0
34 0
37 0
-39 0
-41 0
42 0
-43 0
46 0
47 0
48 0
49 0
-50 0
-51 0
52 0
53 0
-54 0
-56 0
57 0
58 0
-59 0
-60 0
-61 0
62 0
-63 0
-65 0
-67 0
68 0
-69 0
-71 0
72 0
-73 0
-74 0
76 0
77 0
79 0
-80 0
81 0
84 0
85 0
87 0
88 0
90 0
-91 0
-93 0
94 0
95 0
-97 0
-98 0
99 0
100 0
-101 0
102 0
103 0
104 0
106 0
-107 0
-108 0
110 0
111 0
-112 0
-114 0
-115 0
-116 0
-118 0
119 0
-120 0
122 0
123 0
-124 0
125 0
-126 0
-127 0
128 0
129 0
-130 0
-131 0
134 0
137 0
-140 0
141 0
143 0
144 0
145 0
146 0
-147 0
-149 0
-150 0
-151 0
-152 0
-155 0
-157 0
-161 0
-163 0
164 0
165 0
166 0
168 0
-169 0
-170 0
171 0
172 0
173 0
-174 0
178 0
-179 0
180 0
182 0
183 0
184 0
185 0
186 0
-188 0
-190 0
-191 0
-192 0
-194 0
195 0
198 0
200 0
-201 0
-202 0
-203 0
206 0
-208 0
209 0
-210 0
-212 0
213 0
214 0
-215 0
221 0
222 0
223 0
-225 0
-226 0
227 0
-228 0
-229 0
230 0
-231 0
-232 0
-233 0
234 0
235 0
237 0
-238 0
-239 0
240 0
241 0
242 0
-243 0
-244 0
245 0
-247 0
-248 0
-250 0
-1120 1121 0
-1119 1120 0
-1117 1118 0
-1115 1116 0
-1112 1113 0
-1110 1111 0
-1106 1107 0
-1105 1106 0
59 1104 0
-1101 1102 0
-1100 1101 0
-1099 1101 0
-1098 1099 0
-1097 1098 0
-1096 1097 0
-1095 1096 0
-1094 1096 0
-1089 1090 0
-1088 1089 0
-1087 1089 0
-1085 1086 0
-1082 1083 0
-1081 1082 0
-1078 1079 0
-1077 1078 0
-1075 1080 0
-1074 1075 0
-1073 1074 0
-1072 1074 0
-1070 1071 0
-1069 1070 0
-1068 1069 0
-1067 1071 0
-1065 1066 0
-1064 1065 0
-1063 1064 0
-1062 1065 0
-1061 1062 0
-1060 1061 0
-1059 1060 1063 0
-518 519 0
-517 518 0
193 502 529 606 628 648 803 835 948 970 0
-1031 1032 0
-434 437 0
-611 612 0
-508 509 511 520 609 612 621 651 700 702 729 808 827 863 892 954 957 961 982 1027 0
-193 347 390 451 488 497 517 527 602 620 640 738 774 790 795 826 929 935 946 956 968 1072 0
-105 508 513 522 704 829 0
-505 506 0
-504 505 0
-852 853 981 1026 0
-502 503 0
-592 600 0
-189 742 1039 1076 0
-500 501 528 605 627 647 802 834 947 969 0
-326 327 440 0
-498 501 605 796 827 947 0
-692 693 0
-497 503 0
-711 712 0
-493 494 0
-492 495 0
-490 506 0
-488 489 0
-483 487 0
-835 836 0
-480 481 0
-28 1110 0
-246 351 1039 1076 0
-478 481 0
-509 510 0
-473 475 0
-876 877 0
-484 485 589 707 731 837 871 894 988 1029 0
-132 472 0
-444 445 0
-474 475 0
-860 861 0
-1025 1033 0
-459 460 0
-377 378 0
-582 583 0
-458 459 0
216 347 390 451 474 479 584 774 995 998 1018 1072 0
-456 457 0
-995 996 0
-301 303 0
-718 719 0
-1042 1043 0
196 456 774 1072 0
-1035 1036 0
-496 497 601 793 824 945 0
-1016 1019 0
-605 606 0
-317 318 402 0
-515 516 0
-436 437 0
-76 464 1095 0
-931 932 0
-952 953 0
-1002 1003 0
-808 809 0
-584 585 0
-834 835 0
-455 457 0
-454 455 0
-453 454 0
-1066 1067 0
-642 644 0
-799 800 0
-944 950 0
-447 448 0
-479 480 0
-830 831 0
-638 639 0
-442 444 0
138 260 267 299 388 426 546 563 682 772 845 880 927 1024 1070 0
-1053 1054 0
-439 442 0
-457 458 0
-252 253 0
-438 439 0
-437 438 0
-513 514 615 0
-435 436 0
-514 515 0
-433 446 0
-431 432 440 0
-429 430 0
-412 413 0
-604 605 0
-428 429 0
-426 428 0
-475 477 582 690 696 719 725 933 1001 1009 0
-906 907 0
-423 424 0
189 347 390 451 774 1072 0
-421 422 0
-417 418 0
-416 417 419 765 0
-415 416 0
-1076 1078 0
-14 347 390 451 774 1072 0
-414 416 0
-840 847 0
-1014 1015 0
-413 430 0
-709 710 0
-408 409 0
36 281 338 390 447 742 1039 1076 0
-869 870 0
-402 403 0
-839 840 0
-399 400 0
-494 495 0
-398 399 0
-1083 1084 0
-680 683 0
-371 372 0
-774 776 0
121 395 410 424 443 742 1052 1079 0
-391 392 0
-528 529 0
-385 386 0
-384 385 0
-810 811 0
-570 571 0
-382 383 0
-485 486 0
249 540 544 555 565 924 1020 0
-380 382 0
-378 389 0
-411 412 0
-589 590 0
-1054 1084 0
-376 377 410 611 699 728 891 1026 0
30 375 384 422 505 532 599 603 614 645 801 833 947 969 0
-373 392 0
-644 646 0
-801 802 0
-947 948 0
-216 473 1016 0
-487 489 0
-372 373 0
45 372 436 486 494 515 524 590 596 617 624 709 733 839 873 896 943 965 990 1031 0
-477 478 0
-369 371 435 485 493 514 523 708 810 817 866 984 0
-15 369 0
-762 763 0
-365 373 0
64 347 390 451 774 1041 1072 0
-363 364 434 482 491 511 520 699 807 862 891 938 960 981 1026 0
-358 360 0
115 469 1095 0
-756 757 0
-356 357 0
-273 274 380 545 563 681 844 879 926 1023 1055 1069 0
136 355 366 445 484 493 513 522 595 941 0
-911 912 0
-121 354 405 409 418 777 1075 0
-352 353 0
-625 626 0
246 351 0
-1003 1004 0
-350 352 391 452 775 1073 0
-525 531 0
-207 350 0
-786 787 0
-364 365 0
-1026 1027 0
86 349 0
207 350 742 1039 1076 0
-375 376 0
-441 442 0
-367 368 444 0
-86 349 0
-445 446 0
-941 942 0
-440 441 0
-1045 1046 0
-767 768 0
-687 689 0
-470 471 0
-159 283 304 309 333 398 554 774 910 1072 0
66 255 258 264 293 768 841 875 1066 0
-337 338 0
-910 913 0
-467 468 0
-335 336 0
-465 466 0
154 347 390 451 744 774 1072 0
-332 336 0
-1030 1031 0
75 499 0
-814 815 941 963 0
-341 342 0
-600 601 639 0
-312 313 0
-486 487 0
-310 311 0
-347 353 0
-205 347 390 451 774 1072 0
-817 818 0
-392 393 0
-662 663 0
-764 765 0
-36 280 320 0
-451 453 0
-461 462 0
-526 527 619 967 0
-1108 1109 0
-713 714 0
159 306 548 557 565 634 912 924 1020 0
-669 671 713 903 0
-271 285 399 412 0
-89 308 314 332 390 447 742 1039 1076 0
-305 306 550 556 566 635 684 847 882 911 925 979 1021 0
-827 828 0
-563 564 0
142 305 0
-396 397 0
-339 340 0
-395 396 0
-770 771 0
-912 913 0
-1033 1034 0
-299 300 0
-745 746 0
-306 307 0
-75 347 390 451 488 496 499 517 526 638 738 774 790 929 935 956 1072 0
-298 299 0
-1084 1086 0
-468 470 0
-290 291 0
-294 295 0
-466 467 0
-281 282 0
-476 477 687 865 0
-175 348 0
-579 580 785 819 857 0
-291 292 0
-959 974 0
-260 261 0
-450 453 0
-289 292 0
-258 259 266 298 387 427 745 771 844 879 926 1023 1069 0
-449 450 0
-641 642 0
39 1117 0
-287 288 0
-333 334 0
-851 852 0
-406 407 0
-872 873 0
-23 286 301 322 366 439 510 610 652 703 758 797 828 955 1062 0
8 347 390 451 573 659 738 774 886 929 993 1072 0
-726 727 0
-321 322 438 0
-274 275 0
-813 814 0
-1046 1047 0
-109 288 401 754 755 765 1055 1058 0
-568 572 658 671 713 0
-320 339 0
55 284 301 321 325 366 507 608 650 702 756 796 827 953 1060 0
-499 501 528 605 627 647 802 834 947 969 0
-280 282 0
-660 662 0
-811 814 0
-263 264 290 677 679 696 725 899 904 1002 1009 0
218 347 390 451 691 695 720 724 774 899 905 916 920 1003 1008 1014 1072 0
-805 806 0
-342 353 0
-199 668 890 997 0
-608 609 0
-747 749 0
-870 871 894 0
203 1108 0
-982 983 0
-138 256 265 295 378 543 559 562 680 695 724 769 843 875 878 915 1013 1067 0
-1057 1059 0
-803 804 0
-631 632 0
158 456 774 1072 0
-546 547 0
-868 869 0
-1040 1042 1077 0
109 341 390 403 447 742 755 1039 1076 0
-420 421 0
-386 387 0
20 347 390 451 539 544 567 685 774 883 924 1020 1072 0
-66 258 0
-362 364 0
-253 254 0
-257 259 297 386 770 1068 0
-549 550 570 778 783 810 817 0
-156 251 257 263 266 426 665 669 681 888 898 924 995 998 1020 0
-266 267 0
-985 987 0
-278 285 297 379 399 770 0
-463 465 0
-658 659 0
-284 285 302 399 535 631 655 704 759 764 798 830 976 1063 0
-529 530 0
-55 284 314 324 754 1056 0
-1000 1004 0
-719 720 0
-1023 1024 0
-360 361 0
-277 278 0
-296 297 386 427 770 1068 0
-503 504 0
-599 600 0
-905 906 0
-999 1000 0
-70 272 792 937 959 0
-283 285 0
132 347 390 451 472 474 479 584 774 995 998 1017 1072 0
-409 411 0
-359 360 0
-361 362 0
-292 294 377 768 1066 0
-771 772 0
-973 974 0
-197 347 390 451 774 1040 1072 0
-616 617 0
-322 328 0
-1013 1025 0
-269 270 0
-217 344 358 0
-374 376 0
-948 949 0
-309 310 0
-715 718 0
-1041 1042 1077 0
70 272 276 375 383 415 421 484 504 513 531 598 603 645 805 951 973 0
-38 275 293 380 412 414 420 742 762 1039 1081 0
-357 362 0
-324 326 0
-177 262 289 296 0
-254 255 289 0
-354 396 0
-567 568 0
-867 870 0
-330 331 0
-142 283 304 305 309 333 398 553 774 909 1072 0
-639 640 0
-325 326 0
-482 483 0
-511 512 0
-323 324 0
-1079 1080 0
-264 265 0
-379 385 0
156 253 263 0
-45 347 365 405 431 434 483 492 512 521 588 594 613 622 701 730 774 809 864 893 935 940 956 962 983 1028 1072 0
-6 476 479 578 584 688 695 716 724 782 816 854 0
-351 352 391 452 576 635 639 646 654 739 775 1073 0
-407 450 0
-791 792 0
-285 287 0
-148 347 390 451 674 695 724 774 1008 1072 0
-937 952 0
-236 347 390 451 774 1072 0
-286 287 400 764 0
-259 260 0
-446 448 0
-655 656 0
-950 951 0
89 283 310 335 398 774 1072 0
-806 807 862 981 0
-410 411 0
-993 994 0
23 286 302 314 327 441 536 632 656 705 760 799 831 977 1064 0
-679 680 0
-265 268 0
-1093 1094 0
-1051 1052 0
113 347 390 451 488 496 498 534 630 638 643 653 738 774 790 798 829 929 935 975 1072 0
-574 576 0
-693 694 0
-850 851 857 0
-760 761 0
-270 271 0
32 500 0
-560 561 0
133 316 323 0
-979 980 0
135 347 390 451 579 774 1072 0
-313 317 0
-648 649 0
-334 335 0
-282 285 406 776 1074 0
-763 767 0
-992 993 0
22 252 0
-918 923 0
-329 331 0
-606 607 0
-909 910 0
175 348 0
-661 662 735 868 986 0
-1001 1002 0
-825 826 0
-83 273 293 413 542 559 562 679 695 724 763 841 875 1057 0
-512 516 0
-943 944 0
-637 660 0
-586 662 713 0
-316 317 0
-996 997 0
-288 342 0
-275 278 0
-394 395 0
-319 320 0
-990 991 0
-597 598 604 646 0
-847 848 0
-220 343 357 367 478 583 687 715 934 0
-427 428 0
-634 636 0
-133 283 313 321 323 325 333 366 398 748 1088 0
-315 316 0
83 273 276 381 429 766 1058 0
-176 283 318 330 333 407 774 1072 0
-896 897 0
-649 650 0
-804 805 0
-696 697 0
-343 346 0
-622 625 0
-344 345 0
-1044 1046 0
-345 346 0
-346 353 406 432 776 1074 0
-387 388 0
-731 732 0
-432 433 0
-873 874 0
-422 423 0
-419 423 0
-249 347 390 451 538 553 555 695 724 774 909 1008 1072 0
-703 706 0
-267 268 0
-30 347 374 379 405 408 417 419 490 519 592 614 774 790 935 956 1072 0
-720 721 0
-904 905 0
-464 465 0
-981 982 0
-32 347 390 451 488 496 500 517 526 638 738 774 790 929 935 956 1072 0
-462 463 0
-397 455 0
-656 657 0
-862 863 0
40 347 390 451 774 1072 0
-300 340 402 0
-677 678 0
-978 979 0
-68 456 1100 0
35 454 743 1083 0
-389 392 444 0
-577 664 0
-974 975 0
-366 368 0
-336 337 0
-35 397 743 1054 0
78 347 390 451 670 675 695 724 774 907 922 1008 1072 0
-535 536 0
-689 690 0
-686 690 719 0
-162 347 390 451 666 695 724 774 1008 1072 0
-524 525 0
-721 722 0
-919 921 0
-823 837 0
-381 382 0
-167 347 390 451 774 1072 0
-530 531 0
-704 705 0
-740 741 0
44 742 1045 1076 0
-788 789 0
-986 987 0
-136 347 355 358 405 433 774 1072 0
-966 972 0
-340 341 0
187 347 390 451 663 736 774 779 786 813 820 851 858 869 986 1072 0
-846 847 979 0
-519 533 0
-472 473 1015 0
-820 821 0
177 270 291 296 742 1039 1076 0
-404 406 0
-580 581 0
-481 576 671 0
-893 897 0
-44 456 774 1072 0
15 347 363 369 405 431 661 774 812 935 956 1072 0
-293 294 377 0
-96 347 390 451 549 661 774 779 785 812 850 1072 0
-968 971 0
-452 453 0
-673 676 0
-331 332 0
-598 599 0
-8 552 637 848 980 0
-304 307 0
-368 371 0
-989 990 0
-314 315 0
-691 692 0
117 347 390 451 774 1072 0
-1004 1005 0
-353 354 0
-550 551 0
-939 940 0
-1008 1009 0
-405 406 0
-588 591 0
-891 892 0
220 345 361 367 480 585 688 695 717 724 1037 0
-489 490 0
-256 261 0
-645 646 0
-297 298 0
-153 347 390 451 774 1072 0
-769 773 0
-954 955 0
-1022 1023 0
-569 571 0
-832 833 0
-82 370 0
-796 797 0
-506 507 0
92 347 390 451 548 570 661 774 850 1072 0
-780 781 936 938 958 960 0
105 347 390 451 508 774 1072 0
-516 518 0
-613 618 0
-204 347 390 451 774 1072 0
-510 537 0
-388 389 0
219 347 390 451 697 726 774 1010 1072 0
-766 767 0
-1091 1092 0
-520 521 0
-181 279 281 337 390 447 742 1039 1076 0
-522 523 623 963 0
-523 524 0
-527 530 0
-501 502 0
-20 538 539 561 678 695 724 877 909 1008 0
-928 930 0
-532 533 0
-40 742 1039 1076 0
-533 534 0
-534 535 0
-536 537 0
-537 576 0
-936 937 0
-538 541 0
-539 540 0
-540 541 0
-945 946 0
-663 664 0
-761 762 770 1068 0
-542 543 0
-543 547 0
-765 766 0
-544 545 844 0
-545 546 0
-664 667 0
-211 456 774 1072 0
-547 551 636 0
-548 551 847 979 0
-942 943 0
96 549 569 0
-969 970 0
-551 552 0
-837 838 0
-552 574 0
-553 554 0
-554 558 0
-555 556 0
-857 858 0
-556 557 0
-1092 1093 0
-743 745 0
-559 560 677 0
-561 568 0
-987 988 1029 0
-562 564 0
-685 686 0
-566 567 0
-92 569 0
-571 572 711 849 855 865 984 0
-572 573 0
-573 574 0
-135 575 578 579 584 711 716 724 781 783 815 817 853 855 865 0
-1104 1105 0
-575 576 0
-576 577 0
-187 577 712 778 784 811 818 849 856 867 985 0
-1019 1022 0
-581 582 715 868 0
-583 586 0
-585 586 0
-587 588 0
-590 591 0
-400 401 0
-841 842 878 914 1012 0
-237 1112 0
-591 592 0
-401 404 0
-842 843 0
-593 594 0
-64 751 1041 0
-403 404 0
-578 581 0
-843 846 0
-594 597 0
-595 596 0
-596 597 0
-601 602 0
-602 607 0
-603 604 626 0
-491 492 0
-724 725 0
-1039 1043 0
-607 608 0
-1032 1033 0
-609 610 0
-1058 1059 0
-610 633 0
-612 613 0
197 742 1040 0
-934 1038 0
-614 615 707 731 794 825 894 945 967 1029 0
-615 616 0
-418 425 0
-617 618 0
-1038 1043 1078 0
-424 425 0
-618 619 0
-425 428 0
-619 620 0
-620 629 0
-621 622 0
-623 624 0
-921 922 0
-430 432 0
-624 625 0
-626 627 0
-627 628 0
-629 630 654 0
-632 633 0
-635 636 0
-636 637 0
-640 649 0
-160 641 0
-643 644 0
-646 647 0
-1071 1074 0
-647 648 0
-650 651 0
-651 652 0
-652 657 0
-653 654 0
-448 449 0
-654 655 0
-657 658 0
-78 665 670 673 888 902 918 995 0
-787 788 0
148 665 669 673 674 888 901 917 919 995 998 0
-564 566 0
-219 665 694 723 933 995 1007 1020 0
-953 954 0
-295 300 0
-665 667 0
-311 312 0
162 666 0
-858 859 0
-666 667 693 722 933 996 1006 1021 0
-667 668 0
-971 972 0
-668 741 0
-670 671 713 999 0
-158 742 1039 1076 0
-674 675 904 920 0
-675 676 0
-676 690 719 1001 1014 0
-678 686 0
-681 682 0
-854 861 0
-1086 1087 0
-683 684 0
-276 277 0
-684 685 0
-688 689 0
-863 864 0
-694 698 0
-695 696 0
-697 698 0
-882 883 0
-443 444 0
-117 742 1039 1076 0
-699 700 0
-884 885 992 0
-700 701 0
-701 710 0
-809 840 0
-705 706 0
-706 707 731 824 894 1029 0
-707 708 0
-302 303 0
-902 908 0
-708 709 0
-710 711 0
-712 737 0
-714 721 0
-307 308 315 329 392 448 696 725 1009 0
-716 717 1036 0
82 347 363 370 405 431 587 593 611 621 728 774 935 956 1072 0
-1018 1019 0
-722 723 0
-1029 1030 0
-318 319 0
-723 727 0
-725 726 0
-915 928 0
-727 735 0
-1114 1115 0
6 347 390 451 476 580 774 788 822 860 1072 0
-728 729 0
-781 782 0
-729 730 0
-927 928 0
-732 733 0
-734 735 0
-735 736 0
-736 737 0
-737 739 0
-255 256 0
-738 739 0
-507 509 0
-739 740 0
176 330 394 449 742 1051 1076 0
-741 746 0
-671 672 0
14 742 1039 1076 0
-698 711 0
-897 930 0
153 742 1039 1076 0
-495 504 0
167 742 1039 1076 0
-196 742 1039 1076 0
204 742 1039 1076 0
-383 384 0
211 742 1047 1076 0
236 742 1045 1076 0
-702 703 0
-742 746 0
-744 745 1042 1077 0
-955 978 0
-940 944 0
-746 747 0
-1090 1092 0
-748 749 0
-327 328 0
-749 750 0
-328 329 364 432 0
-750 752 0
-785 786 0
-751 752 0
181 279 0
-752 753 0
-224 753 0
-965 966 0
-690 691 0
-355 356 359 482 491 511 520 587 593 612 621 700 729 808 863 892 936 939 957 961 982 1027 0
-754 757 0
-390 392 0
-755 756 759 1057 0
-758 761 0
-759 760 0
-370 371 435 485 493 514 523 589 595 616 623 708 732 838 872 895 942 964 989 1030 0
-768 769 0
-772 773 0
-757 758 0
-976 977 0
-773 776 0
-531 532 0
-775 776 0
-776 777 0
-659 660 0
-859 860 0
-977 978 0
-777 1053 0
-778 780 0
-908 914 0
-779 780 0
-113 498 642 0
-782 789 0
-783 784 0
-784 787 0
-789 807 0
-790 791 0
-792 806 0
-793 794 0
-794 795 0
-946 949 0
-795 804 0
-628 629 0
-797 800 0
-798 799 0
-800 801 0
-802 803 0
-807 808 0
-812 813 819 0
-957 958 0
-815 816 0
-816 823 0
-818 821 0
-819 820 0
-821 822 0
-822 823 0
-1080 1082 0
-874 885 0
-824 825 0
-998 999 0
-826 836 0
-828 832 0
-393 394 0
-829 830 0
-831 832 0
-833 834 0
-836 837 871 988 0
-838 839 0
-672 692 0
-889 890 0
-997 1035 0
-845 846 0
-848 887 0
-849 852 0
-853 854 0
-855 856 0
-856 859 0
-251 254 0
-861 862 891 0
-864 874 0
-460 461 0
-865 866 0
-866 867 0
-261 262 0
-871 872 0
-268 269 0
-875 876 0
-469 470 0
-877 884 0
-878 881 0
-682 683 0
-879 880 0
-262 271 0
-880 881 0
-881 882 0
-272 274 294 374 408 414 482 511 587 762 1073 0
-883 884 0
-885 886 0
-279 280 319 0
-886 887 0
-887 889 0
-888 889 0
-890 932 0
-892 893 0
-894 895 0
-895 896 0
-898 900 0
-899 900 0
-1024 1025 0
-900 901 0
-154 744 0
-901 902 0
-903 906 0
-303 312 334 699 728 791 793 891 1026 0
-907 908 0
-1027 1028 0
-913 914 1005 0
-914 915 0
-916 917 0
-917 918 0
-1037 1038 0
-920 921 0
-922 923 0
-1113 1114 0
-923 925 1017 0
-308 311 0
-717 718 0
-924 925 0
-730 734 0
-925 926 0
-926 927 0
-929 930 1033 0
-733 734 0
-930 931 0
-932 933 0
-1118 1119 0
-933 934 0
-935 936 0
-938 939 0
-521 525 0
-949 950 0
-951 952 0
-956 958 0
-338 339 0
-958 959 0
-960 961 0
-961 962 0
-962 966 0
-963 964 0
38 277 381 415 420 0
-964 965 0
-967 968 0
-970 971 0
-972 973 0
-975 976 0
-980 994 0
-983 991 0
199 347 390 451 740 774 931 1034 1072 0
-984 985 0
-988 989 0
205 742 1039 1076 0
-991 992 0
-541 542 842 911 0
-994 996 0
-1005 1006 0
-1006 1007 0
-1007 1011 0
-557 558 0
-1009 1010 0
-558 560 677 876 0
-1010 1011 0
-1011 1012 0
-565 566 684 882 0
-1012 1013 0
-1015 1016 0
-1017 1018 0
-218 665 672 714 888 898 903 916 919 995 1000 0
-1020 1022 0
-1021 1022 0
-1028 1032 0
-844 845 0
-1034 1035 0
-1036 1037 0
-1043 1044 0
-1047 1049 0
-1048 1049 0
-1049 1050 0
-1050 1051 0
-1052 1053 0
-630 631 0
-1055 1056 0
-633 636 0
-1056 1061 0
